; SWAP1 SWAP3 ADD SWAP2 PUSH cw_1 => PUSH cw_1 SWAP4 ADD SWAP3
(set-option :produce-proofs true)
; 
(set-info :status unknown)
(declare-fun storage_t ((_ BitVec 256) (_ BitVec 256) (_ BitVec 256) (_ BitVec 256) (_ BitVec 256) Int (_ BitVec 256)) (_ BitVec 256))
(declare-fun w_1 () (_ BitVec 256))
(declare-fun storage_s ((_ BitVec 256) (_ BitVec 256) (_ BitVec 256) (_ BitVec 256) (_ BitVec 256) Int (_ BitVec 256)) (_ BitVec 256))
(declare-fun exc_halt_t (Int) Bool)
(declare-fun exc_halt_s (Int) Bool)
(declare-fun sc_t (Int) (_ BitVec 6))
(declare-fun stack_t ((_ BitVec 256) (_ BitVec 256) (_ BitVec 256) (_ BitVec 256) (_ BitVec 256) Int (_ BitVec 6)) (_ BitVec 256))
(declare-fun stack_s ((_ BitVec 256) (_ BitVec 256) (_ BitVec 256) (_ BitVec 256) (_ BitVec 256) Int (_ BitVec 6)) (_ BitVec 256))
(declare-fun sc_s (Int) (_ BitVec 6))
(declare-fun used_gas_t ((_ BitVec 256) (_ BitVec 256) (_ BitVec 256) (_ BitVec 256) (_ BitVec 256) Int) Int)
(declare-fun used_gas_s ((_ BitVec 256) (_ BitVec 256) (_ BitVec 256) (_ BitVec 256) (_ BitVec 256) Int) Int)
(assert
 (exists ((x_0 (_ BitVec 256)) (x_1 (_ BitVec 256)) (x_2 (_ BitVec 256)) (x_3 (_ BitVec 256)) )(let (($x8123 (forall ((w (_ BitVec 256)) )(let ((?x8745 (storage_t x_0 x_1 x_2 x_3 w_1 4 w)))
 (let ((?x6312 (storage_s x_0 x_1 x_2 x_3 w_1 5 w)))
 (= ?x6312 ?x8745))))
 ))
 (let (($x3723 (exc_halt_t 4)))
 (let (($x11317 (exc_halt_s 5)))
 (let (($x4974 (= $x11317 $x3723)))
 (let (($x3744 (forall ((n (_ BitVec 6)) )(let ((?x1098 (sc_t 4)))
 (let (($x10045 (bvsle ?x1098 n)))
 (let ((?x5210 (stack_t x_0 x_1 x_2 x_3 w_1 4 n)))
 (let ((?x5909 (stack_s x_0 x_1 x_2 x_3 w_1 5 n)))
 (let (($x3911 (= ?x5909 ?x5210)))
 (or $x3911 $x10045)))))))
 ))
 (let ((?x1098 (sc_t 4)))
 (let ((?x4319 (sc_s 5)))
 (let (($x4380 (= ?x4319 ?x1098)))
 (let ((?x8819 (used_gas_t x_0 x_1 x_2 x_3 w_1 0)))
 (let ((?x1062 (used_gas_s x_0 x_1 x_2 x_3 w_1 0)))
 (let (($x6863 (= ?x1062 ?x8819)))
 (let (($x11375 (forall ((w (_ BitVec 256)) )(let ((?x1683 (storage_t x_0 x_1 x_2 x_3 w_1 0 w)))
 (let ((?x8872 (storage_s x_0 x_1 x_2 x_3 w_1 0 w)))
 (= ?x8872 ?x1683))))
 ))
 (let (($x56 (exc_halt_t 0)))
 (let (($x57 (exc_halt_s 0)))
 (let (($x58 (= $x57 $x56)))
 (let (($x4013 (forall ((n (_ BitVec 6)) )(let ((?x63 (sc_t 0)))
 (let (($x11783 (bvsle ?x63 n)))
 (let ((?x3247 (stack_t x_0 x_1 x_2 x_3 w_1 0 n)))
 (let ((?x2893 (stack_s x_0 x_1 x_2 x_3 w_1 0 n)))
 (let (($x9551 (= ?x2893 ?x3247)))
 (or $x9551 $x11783)))))))
 ))
 (let ((?x63 (sc_t 0)))
 (let ((?x72 (sc_s 0)))
 (let (($x73 (= ?x72 ?x63)))
 (let (($x1624 (= $x3723 (or (exc_halt_t 3) (not (bvsle (_ bv0 6) (bvadd (_ bv60 6) (sc_t 3))))))))
 (let (($x3585 (forall ((w (_ BitVec 256)) )(let ((?x3388 (storage_t x_0 x_1 x_2 x_3 w_1 3 w)))
 (let ((?x8745 (storage_t x_0 x_1 x_2 x_3 w_1 4 w)))
 (= ?x8745 ?x3388))))
 ))
 (let (($x8912 (forall ((n (_ BitVec 6)) )(let ((?x6438 (sc_t 3)))
 (let ((?x9679 (bvadd (_ bv60 6) ?x6438)))
 (let (($x5528 (bvsle ?x9679 n)))
 (let ((?x9367 (stack_t x_0 x_1 x_2 x_3 w_1 3 n)))
 (let ((?x5210 (stack_t x_0 x_1 x_2 x_3 w_1 4 n)))
 (or (= ?x5210 ?x9367) $x5528)))))))
 ))
 (let ((?x6438 (sc_t 3)))
 (let (($x45 (= ?x1098 ?x6438)))
 (let (($x10141 (= (used_gas_t x_0 x_1 x_2 x_3 w_1 4) (+ 3 (used_gas_t x_0 x_1 x_2 x_3 w_1 3)))))
 (let (($x7446 (= (stack_t x_0 x_1 x_2 x_3 w_1 4 (bvadd (_ bv62 6) ?x1098)) (stack_t x_0 x_1 x_2 x_3 w_1 3 (bvadd (_ bv62 6) ?x6438)))))
 (let (($x3265 (= (stack_t x_0 x_1 x_2 x_3 w_1 4 (bvadd (_ bv61 6) ?x1098)) (stack_t x_0 x_1 x_2 x_3 w_1 3 (bvadd (_ bv61 6) ?x6438)))))
 (let ((?x7459 (bvadd (_ bv63 6) ?x6438)))
 (let ((?x11344 (stack_t x_0 x_1 x_2 x_3 w_1 3 ?x7459)))
 (let (($x8822 (= (stack_t x_0 x_1 x_2 x_3 w_1 4 (bvadd (_ bv63 6) ?x1098)) (stack_t x_0 x_1 x_2 x_3 w_1 3 (bvadd (_ bv60 6) ?x6438)))))
 (let (($x6783 (exc_halt_t 3)))
 (let (($x9930 (= $x6783 (or (exc_halt_t 2) (not (bvsle (_ bv0 6) (bvadd (_ bv62 6) (sc_t 2))))))))
 (let (($x1774 (forall ((w (_ BitVec 256)) )(let ((?x307 (storage_t x_0 x_1 x_2 x_3 w_1 2 w)))
 (let ((?x3388 (storage_t x_0 x_1 x_2 x_3 w_1 3 w)))
 (= ?x3388 ?x307))))
 ))
 (let (($x8451 (forall ((n (_ BitVec 6)) )(let ((?x1136 (stack_t x_0 x_1 x_2 x_3 w_1 2 n)))
 (let ((?x9367 (stack_t x_0 x_1 x_2 x_3 w_1 3 n)))
 (or (= ?x9367 ?x1136) (bvsle (bvadd (_ bv62 6) (sc_t 2)) n)))))
 ))
 (let ((?x2714 (sc_t 2)))
 (let ((?x3328 (bvadd (_ bv63 6) ?x2714)))
 (let (($x784 (= ?x6438 ?x3328)))
 (let ((?x3261 (used_gas_t x_0 x_1 x_2 x_3 w_1 3)))
 (let ((?x2083 (bvadd (_ bv62 6) ?x2714)))
 (let ((?x2731 (stack_t x_0 x_1 x_2 x_3 w_1 2 ?x2083)))
 (let ((?x4862 (stack_t x_0 x_1 x_2 x_3 w_1 2 ?x3328)))
 (let (($x5252 (exc_halt_t 2)))
 (let (($x6171 (= $x5252 (or (exc_halt_t 1) (not (bvsle (_ bv0 6) (bvadd (_ bv59 6) (sc_t 1))))))))
 (let (($x10831 (forall ((w (_ BitVec 256)) )(let ((?x11591 (storage_t x_0 x_1 x_2 x_3 w_1 1 w)))
 (let ((?x307 (storage_t x_0 x_1 x_2 x_3 w_1 2 w)))
 (= ?x307 ?x11591))))
 ))
 (let (($x3640 (forall ((n (_ BitVec 6)) )(let ((?x1119 (stack_t x_0 x_1 x_2 x_3 w_1 1 n)))
 (let ((?x1136 (stack_t x_0 x_1 x_2 x_3 w_1 2 n)))
 (let ((?x8347 (sc_t 1)))
 (let ((?x2994 (bvadd (_ bv59 6) ?x8347)))
 (let (($x253 (bvsle ?x2994 n)))
 (or $x253 (= ?x1136 ?x1119))))))))
 ))
 (let ((?x8347 (sc_t 1)))
 (let (($x8552 (= ?x2714 ?x8347)))
 (let ((?x5993 (used_gas_t x_0 x_1 x_2 x_3 w_1 2)))
 (let (($x6734 (= (stack_t x_0 x_1 x_2 x_3 w_1 2 (bvadd (_ bv61 6) ?x2714)) (stack_t x_0 x_1 x_2 x_3 w_1 1 (bvadd (_ bv61 6) ?x8347)))))
 (let (($x9826 (= (stack_t x_0 x_1 x_2 x_3 w_1 2 (bvadd (_ bv60 6) ?x2714)) (stack_t x_0 x_1 x_2 x_3 w_1 1 (bvadd (_ bv60 6) ?x8347)))))
 (let (($x6430 (= (stack_t x_0 x_1 x_2 x_3 w_1 2 (bvadd (_ bv59 6) ?x2714)) (stack_t x_0 x_1 x_2 x_3 w_1 1 (bvadd (_ bv63 6) ?x8347)))))
 (let (($x3508 (exc_halt_t 1)))
 (let (($x5562 (= $x3508 (or $x56 (not (= ((_ extract 6 6) (bvadd (_ bv1 7) (concat (_ bv0 1) ?x63))) (_ bv0 1)))))))
 (let (($x3332 (forall ((w (_ BitVec 256)) )(let ((?x1683 (storage_t x_0 x_1 x_2 x_3 w_1 0 w)))
 (let ((?x11591 (storage_t x_0 x_1 x_2 x_3 w_1 1 w)))
 (= ?x11591 ?x1683))))
 ))
 (let (($x9000 (forall ((n (_ BitVec 6)) )(let ((?x63 (sc_t 0)))
 (let (($x11783 (bvsle ?x63 n)))
 (let ((?x3247 (stack_t x_0 x_1 x_2 x_3 w_1 0 n)))
 (let ((?x1119 (stack_t x_0 x_1 x_2 x_3 w_1 1 n)))
 (or (= ?x1119 ?x3247) $x11783))))))
 ))
 (let (($x934 (= ?x8347 (bvadd (_ bv1 6) ?x63))))
 (let (($x1959 (not (= ((_ extract 6 6) (bvadd (_ bv1 7) (concat (_ bv0 1) (sc_s 4)))) (_ bv0 1)))))
 (let (($x7172 (exc_halt_s 4)))
 (let (($x3295 (forall ((w (_ BitVec 256)) )(let ((?x6778 (storage_s x_0 x_1 x_2 x_3 w_1 4 w)))
 (let ((?x6312 (storage_s x_0 x_1 x_2 x_3 w_1 5 w)))
 (= ?x6312 ?x6778))))
 ))
 (let (($x10246 (forall ((n (_ BitVec 6)) )(let ((?x6525 (stack_s x_0 x_1 x_2 x_3 w_1 4 n)))
 (let ((?x5909 (stack_s x_0 x_1 x_2 x_3 w_1 5 n)))
 (or (= ?x5909 ?x6525) (bvsle (sc_s 4) n)))))
 ))
 (let (($x9335 (= ?x4319 (bvadd (_ bv1 6) (sc_s 4)))))
 (let (($x7143 (= (used_gas_s x_0 x_1 x_2 x_3 w_1 5) (+ 3 (used_gas_s x_0 x_1 x_2 x_3 w_1 4)))))
 (let (($x1402 (= $x7172 (or (exc_halt_s 3) (not (bvsle (_ bv0 6) (bvadd (_ bv61 6) (sc_s 3))))))))
 (let (($x10195 (forall ((w (_ BitVec 256)) )(let ((?x7896 (storage_s x_0 x_1 x_2 x_3 w_1 3 w)))
 (let ((?x6778 (storage_s x_0 x_1 x_2 x_3 w_1 4 w)))
 (= ?x6778 ?x7896))))
 ))
 (let (($x9252 (forall ((n (_ BitVec 6)) )(let ((?x3158 (stack_s x_0 x_1 x_2 x_3 w_1 3 n)))
 (let ((?x6525 (stack_s x_0 x_1 x_2 x_3 w_1 4 n)))
 (or (= ?x6525 ?x3158) (bvsle (bvadd (_ bv61 6) (sc_s 3)) n)))))
 ))
 (let ((?x275 (sc_s 3)))
 (let ((?x4305 (sc_s 4)))
 (let (($x8046 (= ?x4305 ?x275)))
 (let ((?x5244 (used_gas_s x_0 x_1 x_2 x_3 w_1 4)))
 (let (($x1349 (= (stack_s x_0 x_1 x_2 x_3 w_1 4 (bvadd (_ bv62 6) ?x4305)) (stack_s x_0 x_1 x_2 x_3 w_1 3 (bvadd (_ bv62 6) ?x275)))))
 (let ((?x3294 (bvadd (_ bv63 6) ?x275)))
 (let ((?x4944 (stack_s x_0 x_1 x_2 x_3 w_1 3 ?x3294)))
 (let (($x2560 (= (stack_s x_0 x_1 x_2 x_3 w_1 4 (bvadd (_ bv63 6) ?x4305)) (stack_s x_0 x_1 x_2 x_3 w_1 3 (bvadd (_ bv61 6) ?x275)))))
 (let (($x292 (exc_halt_s 3)))
 (let (($x3345 (= $x292 (or (exc_halt_s 2) (not (bvsle (_ bv0 6) (bvadd (_ bv62 6) (sc_s 2))))))))
 (let (($x4898 (forall ((w (_ BitVec 256)) )(let ((?x9621 (storage_s x_0 x_1 x_2 x_3 w_1 2 w)))
 (let ((?x7896 (storage_s x_0 x_1 x_2 x_3 w_1 3 w)))
 (= ?x7896 ?x9621))))
 ))
 (let (($x2600 (forall ((n (_ BitVec 6)) )(let ((?x8418 (stack_s x_0 x_1 x_2 x_3 w_1 2 n)))
 (let ((?x3158 (stack_s x_0 x_1 x_2 x_3 w_1 3 n)))
 (let ((?x218 (sc_s 2)))
 (let ((?x798 (bvadd (_ bv62 6) ?x218)))
 (let (($x4109 (bvsle ?x798 n)))
 (or $x4109 (= ?x3158 ?x8418))))))))
 ))
 (let ((?x218 (sc_s 2)))
 (let ((?x8348 (bvadd (_ bv63 6) ?x218)))
 (let (($x9977 (= ?x275 ?x8348)))
 (let ((?x11197 (used_gas_s x_0 x_1 x_2 x_3 w_1 3)))
 (let ((?x798 (bvadd (_ bv62 6) ?x218)))
 (let ((?x2143 (stack_s x_0 x_1 x_2 x_3 w_1 2 ?x798)))
 (let ((?x4085 (stack_s x_0 x_1 x_2 x_3 w_1 2 ?x8348)))
 (let (($x247 (exc_halt_s 2)))
 (let (($x9526 (= $x247 (or (exc_halt_s 1) (not (bvsle (_ bv0 6) (bvadd (_ bv60 6) (sc_s 1))))))))
 (let (($x6938 (forall ((w (_ BitVec 256)) )(let ((?x11350 (storage_s x_0 x_1 x_2 x_3 w_1 1 w)))
 (let ((?x9621 (storage_s x_0 x_1 x_2 x_3 w_1 2 w)))
 (= ?x9621 ?x11350))))
 ))
 (let (($x1352 (forall ((n (_ BitVec 6)) )(let ((?x154 (sc_s 1)))
 (let ((?x3618 (bvadd (_ bv60 6) ?x154)))
 (let (($x1994 (bvsle ?x3618 n)))
 (let ((?x3004 (stack_s x_0 x_1 x_2 x_3 w_1 1 n)))
 (let ((?x8418 (stack_s x_0 x_1 x_2 x_3 w_1 2 n)))
 (or (= ?x8418 ?x3004) $x1994)))))))
 ))
 (let ((?x154 (sc_s 1)))
 (let (($x11256 (= ?x218 ?x154)))
 (let ((?x6685 (used_gas_s x_0 x_1 x_2 x_3 w_1 2)))
 (let (($x7026 (= (stack_s x_0 x_1 x_2 x_3 w_1 2 (bvadd (_ bv61 6) ?x218)) (stack_s x_0 x_1 x_2 x_3 w_1 1 (bvadd (_ bv61 6) ?x154)))))
 (let ((?x11262 (bvadd (_ bv63 6) ?x154)))
 (let ((?x8893 (stack_s x_0 x_1 x_2 x_3 w_1 1 ?x11262)))
 (let (($x189 (exc_halt_s 1)))
 (let (($x10329 (= $x189 (or $x57 (not (bvsle (_ bv0 6) (bvadd (_ bv62 6) ?x72)))))))
 (let (($x5878 (forall ((w (_ BitVec 256)) )(let ((?x8872 (storage_s x_0 x_1 x_2 x_3 w_1 0 w)))
 (let ((?x11350 (storage_s x_0 x_1 x_2 x_3 w_1 1 w)))
 (= ?x11350 ?x8872))))
 ))
 (let (($x7973 (forall ((n (_ BitVec 6)) )(let ((?x72 (sc_s 0)))
 (let ((?x4677 (bvadd (_ bv62 6) ?x72)))
 (let (($x10507 (bvsle ?x4677 n)))
 (let ((?x2893 (stack_s x_0 x_1 x_2 x_3 w_1 0 n)))
 (let ((?x3004 (stack_s x_0 x_1 x_2 x_3 w_1 1 n)))
 (or (= ?x3004 ?x2893) $x10507)))))))
 ))
 (let (($x3142 (= ?x154 ?x72)))
 (let ((?x3844 (bvadd (_ bv62 6) ?x154)))
 (let ((?x4340 (stack_s x_0 x_1 x_2 x_3 w_1 1 ?x3844)))
 (let (($x8484 (forall ((w (_ BitVec 256)) )(let ((?x8872 (storage_s x_0 x_1 x_2 x_3 w_1 0 w)))
 (= ?x8872 (_ bv0 256))))
 ))
 (let (($x431 (= ?x1062 0)))
 (let (($x3095 (not $x57)))
 (let (($x1649 (= (stack_s x_0 x_1 x_2 x_3 w_1 0 (_ bv3 6)) x_3)))
 (let (($x7978 (= (stack_s x_0 x_1 x_2 x_3 w_1 0 (_ bv2 6)) x_2)))
 (let (($x9086 (= (stack_s x_0 x_1 x_2 x_3 w_1 0 (_ bv1 6)) x_1)))
 (let (($x10494 (= (stack_s x_0 x_1 x_2 x_3 w_1 0 (_ bv0 6)) x_0)))
 (let (($x289 (= ?x72 (_ bv4 6))))
 (and $x289 $x10494 $x9086 $x7978 $x1649 $x3095 $x431 $x8484 (= ?x8893 (stack_s x_0 x_1 x_2 x_3 w_1 0 (bvadd (_ bv62 6) ?x72))) (= ?x4340 (stack_s x_0 x_1 x_2 x_3 w_1 0 (bvadd (_ bv63 6) ?x72))) (= (used_gas_s x_0 x_1 x_2 x_3 w_1 1) (+ 3 ?x1062)) $x3142 $x7973 $x5878 $x10329 (= ?x4085 (stack_s x_0 x_1 x_2 x_3 w_1 1 (bvadd (_ bv60 6) ?x154))) (= (stack_s x_0 x_1 x_2 x_3 w_1 2 (bvadd (_ bv60 6) ?x218)) ?x8893) $x7026 (= ?x2143 ?x4340) (= ?x6685 (+ 3 (used_gas_s x_0 x_1 x_2 x_3 w_1 1))) $x11256 $x1352 $x6938 $x9526 (= ?x4944 (bvadd ?x4085 ?x2143)) (= ?x11197 (+ 3 ?x6685)) $x9977 $x2600 $x4898 $x3345 $x2560 (= (stack_s x_0 x_1 x_2 x_3 w_1 4 (bvadd (_ bv61 6) ?x4305)) ?x4944) $x1349 (= ?x5244 (+ 3 ?x11197)) $x8046 $x9252 $x10195 $x1402 (= (stack_s x_0 x_1 x_2 x_3 w_1 5 ?x4305) w_1) $x7143 $x9335 $x10246 $x3295 (= $x11317 (or $x7172 $x1959)) (= (stack_t x_0 x_1 x_2 x_3 w_1 1 ?x63) w_1) (= (used_gas_t x_0 x_1 x_2 x_3 w_1 1) (+ 3 ?x8819)) $x934 $x9000 $x3332 $x5562 (= ?x4862 (stack_t x_0 x_1 x_2 x_3 w_1 1 (bvadd (_ bv59 6) ?x8347))) $x6430 $x9826 $x6734 (= ?x2731 (stack_t x_0 x_1 x_2 x_3 w_1 1 (bvadd (_ bv62 6) ?x8347))) (= ?x5993 (+ 3 (used_gas_t x_0 x_1 x_2 x_3 w_1 1))) $x8552 $x3640 $x10831 $x6171 (= ?x11344 (bvadd ?x4862 ?x2731)) (= ?x3261 (+ 3 ?x5993)) $x784 $x8451 $x1774 $x9930 $x8822 (= (stack_t x_0 x_1 x_2 x_3 w_1 4 (bvadd (_ bv60 6) ?x1098)) ?x11344) $x3265 $x7446 $x10141 $x45 $x8912 $x3585 $x1624 $x73 $x4013 $x58 $x11375 $x6863 (not (and $x4380 $x3744 $x4974 $x8123)))))))))))))))))))))))))))))))))))))))))))))))))))))))))))))))))))))))))))))))))))))))))))))))))))))))))))))))))
 )
(check-sat)
(get-proof)
